(set-logic QF_S)
(declare-fun var0 () String)
(declare-fun var1 () String)
(declare-fun var2 () Int)
(declare-fun var3 () Int)
(declare-fun var4 () String)
(declare-fun var5 () Int)
(declare-fun var6 () Int)
(declare-fun var7 () String)
(declare-fun var8 () Bool)
(assert (str.prefixof var0 var1))
(assert (str.contains (str.substr "V" var2 var3) (str.substr var4 var5 var6)))
(assert (not (not (str.suffixof var7 var0))))
(assert (not var8))
(check-sat)